File: D:\ML4VRP2024\Instances\CVRP\json\X-n190-k8.json exists.
Route #1: 184 160 1 133 129 46 135 121 50 94 69 55 23 164 113 91 59 96 3 114 9 27 187 124 
Route #2: 83 127 44 10 159 142 104 89 109 35 6 2 38 130 56 8 100 48 174 54 126 76 185 18 40 61 180 32 
Route #3: 172 13 120 168 4 128 34 73 112 169 80 78 150 147 24 12 176 5 47 101 52 71 146 186 87 152 97 143 
Route #4: 37 149 139 72 156 108 51 93 75 158 111 74 161 132 33 107 162 20 65 53 189 154 7 140 
Route #5: 131 118 31 45 99 14 16 170 26 49 119 117 67 166 157 173 134 155 17 79 116 60 122 11 175 82 106 
Route #6: 29 182 165 88 103 92 81 145 115 144 68 21 178 179 62 42 90 15 
Route #7: 105 19 188 57 63 66 171 110 163 95 25 183 136 167 123 177 148 64 
Route #8: 102 43 58 28 138 85 30 39 36 22 77 86 125 137 151 41 181 70 141 98 84 153 
